(set-info :smt-lib-version 2.6)
(set-logic AUFNIRA)
(set-info :source |
Encoded by: Mirek Olšák, Mikoláš Janota, Chad E. Brown
From a collection by: Vít Musil
Source url: https://prase.cz/library/FunkcionalniRovniceVM/FunkcionalniRovniceVM.pdf
Problem number: Úloha 1
|)
(set-info :license "https://creativecommons.org/licenses/by-nc/4.0/")
(set-info :category "crafted")
(set-info :status sat)

; Header
(declare-fun f (Real) Real)

; Equations
(assert (forall ((x Real) (y Real)) (=> (and (exists ((numerator Int) (denominator Int)) (and (distinct denominator 0) (= (/ (to_real numerator) (to_real denominator)) x))) (exists ((numerator Int) (denominator Int)) (and (distinct denominator 0) (= (/ (to_real numerator) (to_real denominator)) y)))) (= (f (+ x y)) (+ (f x) (f y))))))

; Find all possible f

(check-sat)
(exit)
(get-model)
